SCIP version 5.0.0 [precision: 8 byte] [memory: block] [mode: optimized] [LP solver: NONE] [GitHash: 3bbd232]
Copyright (C) 2002-2017 Konrad-Zuse-Zentrum fuer Informationstechnik Berlin (ZIB)

External codes: 
  Readline EditLine w  GNU library for command line editing (gnu.org/s/readline)
  CppAD 20160000.1     Algorithmic Differentiation of C++ algorithms developed by B. Bell (www.coin-or.org/CppAD)
  ZLIB 1.2.5           General purpose compression library by J. Gailly and M. Adler (zlib.net)
  GMP 6.1.2            GNU Multiple Precision Arithmetic Library developed by T. Granlund (gmplib.org)

user parameter file <scip.set> not found - using default parameters

read problem <../../Split_data/output/seismic-bumps/7/0_sample_seismic-bumps.logreg>
============

File name	:	../../Split_data/output/seismic-bumps/7/0_sample_seismic-bumps.logreg
Problem name 	:	0_sample_seismic-bumps
Number of data	:	2067
Number of var	:	21
The given data has linear dependence
4 sets of column vector are linearly dependent:
{ 2 3}, { 4 5 6}, { 7 8}, { 13 14 15}, 

[dim=1] time: 0.032119
[dim=2] time: 0.06412
[dim=3] time: 0.098622
[dim=4] time: 0.12881
[dim=5] time: 0.159267
[dim=6] time: 0.187469
[dim=7] time: 0.212896
[dim=8] time: 0.235061
[dim=9] Time of forward = 0.255677sec.
AIC: 880.349
k: 8

[dim=17] time: 0.067857
[dim=16] time: 0.084692
[dim=15] time: 0.103777
[dim=14] time: 0.137379
[dim=13] time: 0.154824
[dim=12] time: 0.1777
[dim=11] time: 0.197661
[dim=10] time: 0.215944
[dim=9] time: 0.234831
[dim=8] time: 0.254671
[dim=7] Time of backward = 0.269494sec.
AIC: 880.313
k: 8
